(written by ASE)

192 atoms
2 atom types

0.0      13.573030230000001  xlo xhi
0.0      13.573030230000001  ylo yhi
0.0      13.573030230000001  zlo zhi

Masses

1      28.084999992775295 # Si
2      15.998999995884349 # O

Atoms # atomic

     1   1      3.0856387053148531      4.2993705204850849      10.822665456734976
     2   1      9.1788250892816752      5.3085417535614257      4.5172935038954769
     3   1      8.1208627993125493      2.5345487461736322      9.1313381228256656
     4   1      12.783118761009474      3.3694465891351206      12.879192558510848
     5   1      9.0564341215195618      1.3016255788134763      5.9971031457088317
     6   1      12.032218743320358       9.466557437917988       4.431226053298313
     7   1      9.9616291475273702      2.9878984062985907      1.1074855590002282
     8   1      2.1702678270356408      4.6161900916188063      6.3140807379869743
     9   1      3.6161406708983197       11.07255778460558      2.6235905891156972
    10   1      1.7572876848033121      1.2441684437448546      8.1243817441849195
    11   1      11.601437706916089      8.1658233005189054      12.649906199706862
    12   1      9.8374793242425351      11.680289045445482      12.613930074663511
    13   1      7.4133992124778327      12.727063415208308      6.7184862741753113
    14   1      3.7159316820999071      6.1320060538252541      9.0265934114284789
    15   1      4.4911926020621609      12.262608545822856      3.4892755523807191
    16   1      4.6125002993955171      3.5134250049186937      4.8244858174308831
    17   1    0.068168287367778038      8.5320684797803068      3.8327890243103759
    18   1     0.92415626771074089      8.3722383550408352      2.3932824755214361
    19   1      4.1314727813924357      5.9841700120298427      2.0387009158608085
    20   1      2.9579550466481406      6.4381377135122762      6.4657688706475067
    21   1       3.464276454066133      4.0388623799715129      3.7877864534312868
    22   1      3.5368495284539754      6.5525376929480634      2.8771978685253226
    23   1      6.7272090715561186      3.3425124199804808      11.380750389264426
    24   1      2.4449179447076497       11.70207340763956      2.4200637548759469
    25   1      10.186984456946378      8.2947557153620703       2.838867611842693
    26   1      10.313771342859278      3.3832212454443846      1.1614677050870095
    27   1      8.3889025758781646      7.2882873896545375      8.6124502330674169
    28   1      2.3667850485975186      3.3683441228341575      9.2951230727093908
    29   1      1.0976732993134335      11.877400436537851      5.8186818000734633
    30   1      8.3934831081851371      4.2497904734840235      2.4290682449372074
    31   1     0.13182300416530152      2.8509194246194864      11.808545513088154
    32   1      13.204248316586991      5.9964608295153674      5.1407783426432241
    33   1      3.7454380759328689      13.112960279966302     0.78998572073805751
    34   1      5.5477575652777187       2.288804404435111      3.2594825642409946
    35   1      10.587070213661756      2.7657437425145583      7.4930042974798541
    36   1      4.9812225843001974      6.8853501395848973      4.5257612943832815
    37   1      3.8373898293424422      3.8252911993455836      1.1588828590386995
    38   1      6.5396713151380554      11.989639810701746      12.856751102749385
    39   1     0.37168008552669735      12.456678958283552      1.6494561123919909
    40   1       10.15056025101056      12.168503133662542      2.2793162510648743
    41   1      4.4989602952415506      5.1327313111580803      4.7077913877557851
    42   1      7.0071542376486624     0.12207620540051456      5.7370240470015128
    43   1      11.912474894254338      1.1863527819243909      6.5704978612419671
    44   1      6.5317184907072141      10.621866495247684      13.091996271989336
    45   1      9.5974413778446586      3.7154367880471044      9.0954680848024587
    46   1       4.717100383678928       10.42582233927777      9.1722658613649077
    47   1      13.268071767207202      11.763878174804733     0.62582547663470844
    48   1      3.9405725342242768      11.705260439016767      8.1553258150653321
    49   1      4.6726236774362242      0.7546954556222526      10.354493811307831
    50   1    0.020614551895143926      1.2601681647529845      13.484861994672706
    51   1      10.532848956100315      11.785066670326147      6.4764833732806091
    52   1      2.2917877007466165      7.2476903220377515      5.7798289370644342
    53   1      2.2128056431068441      2.2514612883862761       3.503880038565967
    54   1      12.800610387446234      13.393960452871617      9.5508855207375003
    55   1      9.8154374327325442      9.9422148811066595      7.0226250136645829
    56   1      2.4082126455474024      11.912318497872734      11.949564912789628
    57   1      9.6305339342425285      12.669457417095975      13.301544656445767
    58   1      6.8336920109520722       10.28251381927384      8.3693818590162028
    59   1      1.5593927959179792      4.2889211930497924     0.91935423876902189
    60   1      12.037529310619394     0.29956219111743532      7.2926086674850374
    61   1      2.4107344906126635      1.9951663484625948      2.2510121413988382
    62   1      11.902922866049293      6.7114579623164534      4.6270527285922487
    63   1      13.562305172805885      7.4105337648575489       4.117122537541718
    64   1       5.030866740297526      9.4450221718729264      1.6321103111873587
    65   2      10.291359108041169       11.99540444405511      6.4489693912732386
    66   2      5.9355499802279006      1.9425011439378919      5.7378934528945047
    67   2      10.375383035973918      5.6190077293744176      8.4143417778645961
    68   2     0.59422022181008616      2.9823391403035271      2.7665733011055034
    69   2       13.31749761642625     0.60467689375951394      2.9225244634248515
    70   2     0.42618275163117914      8.6804313043570058      8.8655018804110064
    71   2      4.6897737850189793     0.49344106319970132      5.9044099106374288
    72   2      2.3254487253790677       5.791940948520848      5.0601648288635239
    73   2      3.0008115283841024      11.423617989135904      9.4008850053715349
    74   2      6.3880814338595364        5.42494083722345      1.4800016770030477
    75   2      8.1850604926579962      6.8428696447056945      12.288764577483878
    76   2      13.151043617450226      10.988661359636961       11.76369456793981
    77   2      6.7293689432334203      5.0733571819001044      6.5013483798153979
    78   2      7.2105715330629918      11.098623310824211      2.0496139062826448
    79   2      8.1514040365018285      12.297026712256422      3.0195108464549874
    80   2      3.9071766513247481      11.431404228328065      8.8478226270656677
    81   2      13.104284849108257      8.7150219501156556      12.885324049013251
    82   2      11.222838128476614      9.1572889547174245      2.5787094550889758
    83   2      2.8982923969817311      11.713928369198092      4.5323596269879927
    84   2      9.3170136271889046      5.9093677935621418      6.2347546004789969
    85   2     0.14353533801414892      11.161407402663651      4.2273129928815267
    86   2      4.5759225192728135     0.97185477011390031      8.4780821918189364
    87   2      10.568126255350158      6.9363785017614088      6.4839706842426095
    88   2      10.479833356983145      1.3128242937596331      7.3419009521426322
    89   2      10.164620518062817      4.9719056015029155      11.891745440577097
    90   2      6.2003662148695549      1.5730652642091458      13.259361761831045
    91   2      6.1879544294023514      10.217629599241096      1.0621331279949373
    92   2      10.978415794325695      2.0631049909636667      1.6960354342988939
    93   2      3.7520782900537468      5.7645662642680922      6.5867971815881878
    94   2      5.8132274239845438     0.46880603967700896      8.1035233455496183
    95   2      10.070635662575588      13.284655998098431      7.5216297281663715
    96   2      12.648278938782765      12.921064772797205      2.8828484799672838
    97   2      0.9009766435971206      2.3028260598329227      10.104217339386631
    98   2       3.542141511694703      1.5234138498581831      12.804627799954925
    99   2      9.2783794855022137      13.005402426422883      4.4724461338365611
   100   2      2.6095275402060585      1.8566380894856753      12.804493990871174
   101   2      2.2282191063977392       10.89034999272619      2.8731809769896608
   102   2      11.712430277692658     0.76924575084677849      5.1769900363794985
   103   2      5.4554215460441275      13.250563758627981      12.184880208395576
   104   2      5.2181763476181473      5.7642329342510417      9.7066903187369835
   105   2       8.688291789968547      12.136359021578517         9.3273018604672
   106   2      6.9943436073964067      12.225014553129103      4.4925684637155978
   107   2      4.9873622689655921      4.7700037027381397      6.6441598201930443
   108   2     0.47138355739486942       6.147317082642874      4.2974598346509225
   109   2      3.3007579083731935      3.3583333523119498      10.825090736828397
   110   2      5.2336391838919685      13.311666017878434      5.6022933578679055
   111   2      9.4700031566534228      4.1448326126930759      11.218053838386567
   112   2      2.8920046080718738      3.7351223358701042      3.9703604006024595
   113   2      1.7557546157368864      10.187855706964445      5.8569763202151028
   114   2      1.7094581222008651      7.2780443882696719      6.6280122758347861
   115   2      6.8577820071962075      9.6707787682459916     0.90303595389611424
   116   2      6.6771439529785885     0.70042901117389889      13.248525304218363
   117   2      8.9568323573860145      2.2963568115116448       12.48126222694286
   118   2      2.3751305296785992      4.8128451320491354     0.64455589188579143
   119   2      5.0391837313759078      9.9274359434155848      1.6541475331002888
   120   2      10.546035048448168      5.7967995316388441      10.890021013048891
   121   2        2.36072175760791      12.247579596446544      9.8711532978806709
   122   2     0.65450786287620299      6.5048536424284444     0.88945513668441689
   123   2      9.8059681010988644      4.9305611312962521      10.507612988922078
   124   2      11.978664727249253      2.3938060845091687      10.999250098144994
   125   2      5.2359678976526967      5.1886976577586452       8.881159266650581
   126   2      13.221852750866258      9.2634284817466206      3.0005187112551015
   127   2   0.0059325926727612499       1.511951031118558      3.9998204733889366
   128   2     0.93559458995446776     0.89999241688002052      12.844731729613809
   129   2      2.0586333313336804      4.5323600228879162      13.109200673115497
   130   2      7.2438898255850974      9.4018185598655073      3.9035585073332761
   131   2      9.0404542009474937      2.2131667895035401       4.697480407170767
   132   2      12.305467092831822      9.9022328696421074      6.2737702342712911
   133   2      6.2149503335895142      10.075118849662521       5.400058303583787
   134   2      5.8703448957568751      7.7055512084195197      7.5974900547518036
   135   2      6.2495368127049584      8.2048397422043085      2.0341295291412775
   136   2      10.029202111197439      2.2063543617746162      10.975071430783039
   137   2      7.7733399481512802      12.701912644669322       5.664787718566326
   138   2      8.9360791457358069     0.99707552497693397      4.1184684748670239
   139   2      2.2017001134425707      9.0734095315955638       1.643622622553301
   140   2      6.7660058266312815      3.4295268762008986      2.2780408430221035
   141   2      11.039584542911673      3.3094093860305356       1.084109345111667
   142   2      5.3263529495049617       2.860076082176692      9.6913985420841957
   143   2      8.3976137060762106      12.880001949910646      11.555294543444417
   144   2      4.1547602864395197      11.686130555464906      3.4338324910774403
   145   2      11.583915188451627      1.9681075875568368      12.604270532137251
   146   2      7.6612571410967183      6.2091226569146398      5.4692005966356065
   147   2      5.1234413450864276      2.1341098601665052      8.5673643842827811
   148   2      4.8300349507642339      11.950173465273872      1.6785323000567089
   149   2      6.3519251003149968      7.9450402187586775      9.8943703348668333
   150   2      8.8933124600055198      5.7893345064428843      9.9292032225696918
   151   2      9.6367783607029196      5.1791597045819184      5.8094550188529492
   152   2      4.8117103163556267      10.553471386114753      1.9406743082764917
   153   2      11.069056745766382      7.9826380022634265      5.0375807071380461
   154   2      12.791383061085618      13.000407546828079       13.14690718352186
   155   2      1.3695426674146827      6.6584059543022347      12.498616949799493
   156   2     0.12034408770466305       4.071387816411316      6.2368867847896601
   157   2      3.7739091527923789      7.7572261907662829       7.277976971878938
   158   2      11.457078402347996      3.2511097739460286      10.262278515298179
   159   2      6.6984253709058992      13.101657030326153      11.649584544177431
   160   2     0.27908785750669701      5.4232544874044475      3.4617974024636529
   161   2      6.6242597169952608      13.521600462843196       7.862021065714595
   162   2     0.93682804674769993      10.144135887364133      2.7260368438817788
   163   2      6.2809770087691623      8.6316525770559931      12.389400057407096
   164   2      4.6322248277708153      9.0266515291760996     0.47942884680158465
   165   2     0.84730548520397497      5.7741704609345117      8.0056043043995366
   166   2      3.8462499446938865      10.080160440005104      4.3553681208224129
   167   2      3.6675662443708235      9.4457046058557061      9.6180169831311915
   168   2       13.24980171233388      1.8017490500753621       1.307864491246419
   169   2      11.289165156764467      3.7496089607425769      12.300002355093273
   170   2      7.7583731755747403       8.167158505898291    0.063872146531647814
   171   2      7.6875132321667516      11.815309270196334      13.489120221102286
   172   2      5.1658980924010569      2.2798388078518812      12.267456532479022
   173   2      5.6243751917568101      6.1388034189803768       6.368006631647698
   174   2      7.4303580359192845      0.8230495220552605     0.20661881573841906
   175   2      10.411722164375313      8.5867363322233476      5.3499077903348242
   176   2      8.8840005142591281      9.6747822501249132      3.9515001589438694
   177   2      5.3202939351705663       3.358073753115693      1.8747063179848773
   178   2      8.0325616127144794      10.012191276985916      8.2504051672246117
   179   2      3.4666141759090876      8.7059321490719075      5.5793006834835275
   180   2      6.0609313676325156     0.17702297285341867      10.573878969887113
   181   2      12.180525615758336      3.9579425155160268      4.9115035990064282
   182   2      6.6710140123842221      5.3992240070594653      5.0140459287752606
   183   2      10.125021767140586      8.8708462512176656       4.354947624727143
   184   2      8.6130575835792893        9.27748313698598      5.9731193021495859
   185   2      3.5392647594876507      11.712237026485179    0.077947373727721647
   186   2      9.7631137133704051      10.980148446637049      2.8631937774866936
   187   2       7.736641349609604      13.329935039497482      4.0934363327041083
   188   2      8.3498662445426604      5.6153574151570282      5.9859892261386625
   189   2      10.216578051007417      7.3993498749296363      3.7658631651450576
   190   2      10.063290762155512      7.5907534592070842      4.1795058113163108
   191   2      8.1040094655974233      10.074398570467068     0.86885011660345124
   192   2      2.2454976821458059      4.7864871200107384      3.3830529706014989
